
molecule imidazole {
  0 1
  C    1.000     1.000     0.000
  C   -0.375     1.000     0.000
  N   -0.728     1.000     1.321
  H   -1.667     1.001     1.694
  C    0.426     1.000     2.053
  N    1.484     1.000     1.283
  H    1.666     0.999    -0.853
  H   -1.104     1.001    -0.797
  H    0.429     0.999     3.135
}

set {
basis def2-SVP
}

grad, wfn = optimize('pbe0', return_wfn=True)

fw = core.FCHKWriter(wfn)
fchkfile = 'molecule' + '.fchk'
fw.write(fchkfile)
