
molecule imidazole {
  0 1
  C    0.671     0.000    -0.944
  C   -0.704     0.001    -0.944
  N   -1.057     0.000     0.380
  H   -1.999     0.001     0.747
  C    0.093     0.000     1.105
  N    1.151    -0.002     0.335
  H    1.336     0.000    -1.807
  H   -1.439     0.001    -1.745
  H    0.093     0.000     2.196
}

set {
basis def2-SVP
}

grad, wfn = energy('pbe0', return_wfn=True)

fw = core.FCHKWriter(wfn)
fchkfile = 'molecule' + '.fchk'
fw.write(fchkfile)
