
molecule imidazole {
  0 1
  C    1.000     1.000     0.000
  C   -0.407     1.000     0.000
  N   -0.913     1.000     1.235
  N    0.174     1.000     2.024
  H    0.038     1.001     3.030
  C    1.345     1.000     1.330
  H    1.666     1.001    -0.851
  H   -1.081     0.999    -0.846
  H    2.301     1.001     1.833
}

set {
basis def2-SVP
}

grad, wfn = optimize('pbe0', return_wfn=True)

fw = core.FCHKWriter(wfn)
fchkfile = 'molecule' + '.fchk'
fw.write(fchkfile)
